letting n =  10
letting blocks =  [[1, 2], [1, 8], [1, 9], [3, 4], [3, 10], [4, 7], [4, 8], [4, 10], [5, 1], [5, 2], [5, 3], [5, 6], [5, 7], [5, 10], [6, 5], [7, 1], [7, 2], [7, 9], [7, 10], [8, 1], [8, 5], [8, 8], [9, 3], [10, 4], [10, 5], [10, 8]]
